proyfinal/src/viki/013/andrea/andrea-localstore/experimentInOfficeAgust.take6/worker_8/48083d70-3b92-4ace-8677-88f4bcc94db3.als.cnf.out
Reading from standard input... Use '--help' for help.
============================[ Problem Statistics ]=============================
|                                                                             |
|  Number of variables:         87638                                         |
|  Number of clauses:          161767                                         |
|  Parse time:                   0.04 s                                       |
|                                                                             |
============================[ Search Statistics ]==============================
| Conflicts |          ORIGINAL         |          LEARNT          | Progress |
|           |    Vars  Clauses Literals |    Limit  Clauses Lit/Cl |          |
===============================================================================
|       100 |   62885   107251   267358 |    39325      100     10 | 28.245 % |
|       250 |   62885   107251   267358 |    43257      250     22 | 28.245 % |
|       475 |   62885   107251   267358 |    47583      475     34 | 28.245 % |
|       812 |   62693   106481   265535 |    52342      792     46 | 28.464 % |
|      1318 |   62693   106481   265535 |    57576     1298     44 | 28.464 % |
|      2077 |   62693   106481   265535 |    63333     2057     48 | 28.464 % |
|      3216 |   62663   106361   265251 |    69667     3193     55 | 28.498 % |
|      4924 |   62403   105291   262716 |    76634     4870     54 | 28.795 % |
|      7486 |   62403   105291   262716 |    84297     7432     71 | 28.795 % |
|     11330 |   62299   104873   261727 |    92727    11264     72 | 28.913 % |
|     17096 |   55984    84766   212271 |   101999    15939     71 | 36.119 % |
===============================================================================
restarts              : 77
conflicts             : 21444          (8348 /sec)
decisions             : 65569          (0.00 % random) (25527 /sec)
propagations          : 25757079       (10027606 /sec)
conflict literals     : 1417278        (48.75 % deleted)
Memory used           : 40.45 MB
CPU time              : 2.56862 s

UNSATISFIABLE
